words_easy_train/words_992_SAT.qaiger
aag 77 24 0 1 53
26
22
16
48
6
38
2
42
20
40
18
32
46
44
24
34
12
28
36
4
10
30
14
8
155
50 36 19
52 37 18
54 53 51
56 54 2
58 55 3
60 59 57
62 24 9
64 25 8
66 65 63
68 67 42
70 66 43
72 71 69
74 20 5
76 21 4
78 77 75
80 79 38
82 78 39
84 83 81
86 85 73
88 40 23
90 41 22
92 91 89
94 93 6
96 92 7
98 97 95
100 44 27
102 45 26
104 103 101
106 105 10
108 104 11
110 109 107
112 111 99
114 112 86
116 33 16
118 32 17
120 119 117
122 120 49
124 31 14
126 30 15
128 127 125
130 129 121
132 131 123
134 46 29
136 47 28
138 137 135
140 138 12
142 139 13
144 143 141
146 144 133
148 129 49
150 149 146
152 150 114
154 152 60
i0 2 y1[4]
i1 2 y1[2]
i2 1 x2[7]
i3 2 y2[7]
i4 1 x2[2]
i5 2 y2[2]
i6 1 x2[0]
i7 2 y2[4]
i8 2 y1[1]
i9 2 y2[3]
i10 2 y1[0]
i11 2 y1[7]
i12 2 y2[6]
i13 2 y2[5]
i14 2 y1[3]
i15 2 y2[0]
i16 1 x2[5]
i17 2 y1[5]
i18 2 y2[1]
i19 1 x2[1]
i20 1 x2[4]
i21 2 y1[6]
i22 1 x2[6]
i23 1 x2[3]
o0 bool[0]
c
simplified
  !=
    xor
      1 x2
      2 y1
    >> 1
      2 y2
