words_easy_train/words_992_SAT.qaiger.qdimacs
p cnf 77 160
a 1 2 3 4 5 6 7 8 0
e 9 10 11 12 13 14 15 16 17 18 19 20 21 22 23 24 25 26 27 28 29 30 31 32 33 34 35 36 37 38 39 40 41 42 43 44 45 46 47 48 49 50 51 52 53 54 55 56 57 58 59 60 61 62 63 64 65 66 67 68 69 70 71 72 73 74 75 76 77 0
-18 9 25 0
18 -25 0
-9 -25 0
18 -9 26 0
-18 -26 0
9 -26 0
26 25 27 0
-26 -27 0
-25 -27 0
-27 -1 28 0
27 -28 0
1 -28 0
27 1 29 0
-27 -29 0
-1 -29 0
29 28 30 0
-29 -30 0
-28 -30 0
-12 4 31 0
12 -31 0
-4 -31 0
12 -4 32 0
-12 -32 0
4 -32 0
32 31 33 0
-32 -33 0
-31 -33 0
33 -21 34 0
-33 -34 0
21 -34 0
-33 21 35 0
33 -35 0
-21 -35 0
35 34 36 0
-35 -36 0
-34 -36 0
-10 2 37 0
10 -37 0
-2 -37 0
10 -2 38 0
-10 -38 0
2 -38 0
38 37 39 0
-38 -39 0
-37 -39 0
39 -19 40 0
-39 -40 0
19 -40 0
-39 19 41 0
39 -41 0
-19 -41 0
41 40 42 0
-41 -42 0
-40 -42 0
42 36 43 0
-42 -43 0
-36 -43 0
-20 11 44 0
20 -44 0
-11 -44 0
20 -11 45 0
-20 -45 0
11 -45 0
45 44 46 0
-45 -46 0
-44 -46 0
46 -3 47 0
-46 -47 0
3 -47 0
-46 3 48 0
46 -48 0
-3 -48 0
48 47 49 0
-48 -49 0
-47 -49 0
-22 13 50 0
22 -50 0
-13 -50 0
22 -13 51 0
-22 -51 0
13 -51 0
51 50 52 0
-51 -52 0
-50 -52 0
52 -5 53 0
-52 -53 0
5 -53 0
-52 5 54 0
52 -54 0
-5 -54 0
54 53 55 0
-54 -55 0
-53 -55 0
55 49 56 0
-55 -56 0
-49 -56 0
-56 -43 57 0
56 -57 0
43 -57 0
16 -8 58 0
-16 -58 0
8 -58 0
-16 8 59 0
16 -59 0
-8 -59 0
59 58 60 0
-59 -60 0
-58 -60 0
-60 24 61 0
60 -61 0
-24 -61 0
15 -7 62 0
-15 -62 0
7 -62 0
-15 7 63 0
15 -63 0
-7 -63 0
63 62 64 0
-63 -64 0
-62 -64 0
64 60 65 0
-64 -65 0
-60 -65 0
65 61 66 0
-65 -66 0
-61 -66 0
-23 14 67 0
23 -67 0
-14 -67 0
23 -14 68 0
-23 -68 0
14 -68 0
68 67 69 0
-68 -69 0
-67 -69 0
-69 -6 70 0
69 -70 0
6 -70 0
69 6 71 0
-69 -71 0
-6 -71 0
71 70 72 0
-71 -72 0
-70 -72 0
-72 66 73 0
72 -73 0
-66 -73 0
64 24 74 0
-64 -74 0
-24 -74 0
74 -73 75 0
-74 -75 0
73 -75 0
-75 -57 76 0
75 -76 0
57 -76 0
-76 -30 77 0
76 -77 0
30 -77 0
-77 0
